Route #1: 51 3 44 24 49 16 33 6
Route #2: 63 23 56 41 64 42 43 1 73
Route #3: 75 74 28 61 22 62 2 68
Route #4: 4 48 47 36 69 21 30
Route #5: 57 15 20 70 60 71 37 5 29 45
Route #6: 46 54 13 27 52 34 67
Route #7: 8 19 59 14 53 35 7
Route #8: 11 66 65 38 58
Route #9: 17 40 9 39 12 26
Route #10: 72 10 31 25 55 18 50 32
Cost 839
Time 0.128227
Tempo = 0.13907650002511218